

[NpcPos]	Flags	Index	PosX	PosY	Type	IsRangeCheck
0	0	1	54	238	3	1
1	0	2	240	146	2	1
2	0	3	48	233	5	1
3	0	4	67	219	1	1
4	0	5	77	218	1	1
5	0	6	71	232	4	1
6	0	7	40	217	1	1
7	0	8	57	241	7	0
8	0	9	51	242	7	0
9	0	10	58	205	7	0
10	0	11	76	152	6	1
11	0	12	3	230	6	0
12	1	15	133	16	6	1
13	1	16	233	205	6	1
14	1	17	202	33	6	1
15	0	18	54	241	6	1
16	0	19	66	180	6	1
17	0	20	135	102	6	1
18	0	21	120	124	6	1
19	0	22	127	158	6	1
20	0	23	169	168	6	1
21	0	24	157	172	6	1
22	0	25	212	31	6	1
23	0	26	173	52	6	1
24	0	27	229	62	6	1
25	0	28	247	71	6	1
26	0	29	245	41	6	1
27	0	30	240	154	7	0
28	0	31	193	166	7	0
29	0	32	210	33	7	0
30	0	33	189	204	7	0
31	0	34	203	228	7	0
32	0	35	160	225	7	0
33	0	36	153	174	7	0
34	0	37	123	221	7	0
35	0	38	69	50	7	0
36	0	39	32	47	7	0
37	0	40	17	23	7	0
38	0	41	10	219	7	0
39	0	42	131	10	7	0
40	0	43	243	146	7	0
41	0	44	240	151	7	0
42	0	45	240	148	7	0
43	0	46	38	232	6	1
44	0	47	134	187	7	1
45	0	48	240	20	7	0
46	0	50	0	0	1	0

[WarpLst]	NpcsIdx	NSetIdx	TargetIdx	LV	Fee	Type
0	11	0	218	50	0	0
1	12	0	222	50	0	0
2	15	0	105	0	0	1
3	15	1	166	1	0	2
4	15	2	182	1	0	2
5	16	0	167	1	0	2
6	16	1	183	1	0	2
7	17	0	203	0	0	1
8	17	1	171	1	0	2
9	17	2	184	1	0	2
10	17	3	293	100	0	2
11	18	0	98	0	0	1
12	18	1	101	0	0	1
13	18	2	103	0	0	1
14	18	3	104	0	0	1
15	18	4	107	0	0	1
16	18	5	108	0	0	1
17	18	6	109	0	0	1
18	18	7	202	0	0	1
19	18	8	213	0	0	1
20	18	9	217	0	0	1
21	20	0	272	0	0	1
22	21	0	97	0	0	1
23	22	0	99	0	0	1
24	23	0	100	0	0	1
25	24	0	102	0	0	1
26	26	0	199	0	0	1

[SkillLst]	NSetIdx	NpcsIdx	SkillIdx	SkillLv
0	0	2	211	1
1	1	2	216	1
2	2	2	41	1
3	3	2	70	1
4	4	2	43	1
5	5	2	45	1
6	6	2	46	1
7	7	2	205	1
8	8	2	44	1
9	9	2	212	1
10	10	2	52	1
11	11	2	53	1
12	12	2	51	1
13	13	2	206	1
14	14	2	54	1
15	15	2	35	1
16	16	2	202	1
17	17	2	36	1
18	18	2	210	1
19	19	2	37	1
20	20	2	34	1
21	21	2	56	1
22	22	2	217	1
23	23	2	55	1
24	24	2	57	1
25	25	2	214	1
26	26	2	58	1
27	27	2	213	1
28	28	2	219	1
29	29	2	218	1
30	30	2	220	1
31	31	2	221	1
32	32	2	215	1
33	33	2	207	1
34	34	2	250	1
35	35	2	260	1
36	36	2	245	1
37	37	2	153	1
38	38	2	223	1
39	39	2	246	1
40	40	2	234	1
41	41	2	236	1
42	42	2	138	1
43	43	2	272	1
44	44	2	140	1
45	45	2	261	1
46	46	2	154	1
47	47	2	229	1
48	48	2	155	1
49	49	2	251	1
50	50	2	235	1
51	51	2	273	1
52	52	2	139	1
53	53	2	262	1
54	54	2	263	1
55	55	2	228	1
56	56	2	224	1
57	57	2	156	1
58	58	2	141	1
59	59	2	247	1
60	60	2	227	1
61	61	2	269	1
62	62	2	225	1
63	63	2	274	1
64	64	2	226	1
65	65	2	270	1
66	66	2	271	1
67	67	2	307	1
68	68	2	308	1
69	69	2	300	6
70	70	2	301	6
71	71	2	302	4
72	72	2	303	4
73	73	2	304	4
74	74	2	305	5
75	75	2	306	5
76	76	2	300	7
77	77	2	301	7
78	78	2	302	5
79	79	2	303	5
80	80	2	304	5
81	81	2	305	6
82	82	2	306	6
83	83	2	300	8
84	84	2	301	8
85	85	2	302	6
86	86	2	303	6
87	87	2	304	6
88	88	2	305	7
89	89	2	306	7
90	90	2	300	9
91	91	2	301	9
92	92	2	302	7
93	93	2	303	7
94	94	2	304	7
95	95	2	305	8
96	96	2	306	8
97	97	2	300	10
98	98	2	301	10
99	99	2	302	8
100	100	2	303	8
101	101	2	304	8
102	102	2	305	9
103	103	2	306	9
104	104	2	310	1
105	105	2	311	1
106	106	2	312	1
107	107	2	313	1
108	108	2	314	1
109	109	2	310	2
110	110	2	311	2
111	111	2	312	2
112	112	2	313	2
113	113	2	314	2
114	114	2	310	3
115	115	2	311	3
116	116	2	312	3
117	117	2	313	3
118	118	2	314	3

[ShopLst]	NpcsIdx	NSetIdx	ItemKind	ItemOpt	ReputationClass	DurationIdx	Price
0	4	0	95	0	-19	0	24300
1	4	2	80	0	-19	0	24300
2	4	4	65	0	-19	0	16200
3	4	5	50	0	-19	0	16200
4	4	32	96	0	-19	0	48600
5	4	34	81	0	-19	0	48600
6	4	36	66	0	-19	0	32400
7	4	37	51	0	-19	0	32400
8	5	0	245	0	-19	0	16200
9	5	2	260	0	-19	0	16200
10	5	4	275	0	-19	0	16200
11	5	16	110	0	-19	0	24300
12	5	18	125	0	-19	0	24300
13	5	20	140	0	-19	0	24300
14	5	22	155	0	-19	0	16200
15	5	38	170	0	-19	0	16200
16	5	48	200	0	-19	0	16200
17	5	50	215	0	-19	0	16200
18	5	52	230	0	-19	0	16200
19	5	54	185	0	-19	0	16200
20	5	64	246	0	-19	0	32400
21	5	66	261	0	-19	0	32400
22	5	68	276	0	-19	0	32400
23	5	80	111	0	-19	0	48600
24	5	82	126	0	-19	0	48600
25	5	84	141	0	-19	0	48600
26	5	86	156	0	-19	0	32400
27	5	102	171	0	-19	0	32400
28	5	112	201	0	-19	0	32400
29	5	114	216	0	-19	0	32400
30	5	116	231	0	-19	0	32400
31	5	118	186	0	-19	0	32400
32	6	0	35	0	-19	0	16200
33	6	2	36	0	-19	0	32400
34	6	4	20	0	-19	0	16200
35	6	6	21	0	-19	0	32400
36	6	16	3	15	-19	0	900
37	6	17	4	15	-19	0	12000
38	6	18	5	15	-19	0	75000
39	6	19	6	15	-19	0	900
40	6	20	7	15	-19	0	12000
41	6	21	8	15	-19	0	75000
42	6	22	12	1	-19	0	800
43	6	23	12	7	-19	0	5600
44	6	24	5	20	1	0	100000
45	6	25	8	20	1	0	100000
46	6	26	12	10	1	0	8000
47	6	27	5	30	2	0	150000
48	6	28	8	30	2	0	150000
49	6	29	12	20	2	0	16000
50	6	30	5	50	3	0	250000
51	6	31	8	50	3	0	250000
52	6	32	12	30	3	0	24000
53	6	39	288	0	-19	0	32000
54	6	40	289	0	-19	0	42400
55	6	41	296	0	-19	0	32000
56	6	42	297	0	-19	0	42400
57	6	43	304	0	-19	0	35200
58	6	44	305	0	-19	0	45600
59	6	45	316	0	-19	0	42400
60	6	46	319	0	-19	0	32000
61	6	47	323	0	-19	0	32000
62	6	48	352	0	-19	0	42400
63	6	50	356	0	-19	0	42400
64	6	52	360	0	-19	0	42400
65	6	54	366	0	-19	0	32000
66	6	56	370	0	-19	0	42400
67	6	58	373	0	-19	0	42400
68	6	60	380	0	-19	0	37600
69	6	62	381	0	-19	0	48000
70	6	86	626	5	2	0	40000
71	6	88	626	1	2	0	40000
72	6	90	626	2	2	0	40000
73	6	92	626	3	2	0	40000
74	6	94	626	4	2	0	40000
75	6	96	683	129	1	0	40
76	6	97	684	129	1	0	40
77	6	98	685	129	1	0	40
78	6	99	686	129	1	0	40
79	6	100	687	129	1	0	40
80	6	101	688	129	1	0	40
81	6	102	689	129	1	0	40
82	6	103	690	129	1	0	40
83	6	104	691	129	1	0	40
84	6	112	683	138	1	0	400
85	6	113	684	138	1	0	400
86	6	114	685	138	1	0	400
87	6	115	686	138	1	0	400
88	6	116	687	138	1	0	400
89	6	117	688	138	1	0	400
90	6	118	689	138	1	0	400
91	6	119	690	138	1	0	400
92	6	120	691	138	1	0	400
93	7	0	3	1	-19	0	60
94	7	1	4	1	-19	0	800
95	7	2	5	1	-19	0	5000
96	7	3	6	1	-19	0	60
97	7	4	7	1	-19	0	800
98	7	5	8	1	-19	0	5000
99	7	8	3	8	-19	0	480
100	7	9	4	8	-19	0	6400
101	7	10	5	8	-19	0	40000
102	7	11	6	8	-19	0	480
103	7	12	7	8	-19	0	6400
104	7	13	8	8	-19	0	40000
105	7	16	3	15	-19	0	900
106	7	17	4	15	-19	0	12000
107	7	18	5	15	-19	0	75000
108	7	19	6	15	-19	0	900
109	7	20	7	15	-19	0	12000
110	7	21	8	15	-19	0	75000
111	7	24	5	20	1	0	100000
112	7	25	8	20	1	0	100000
113	7	26	12	10	1	0	8000
114	7	27	5	30	2	0	150000
115	7	28	8	30	2	0	150000
116	7	29	12	20	2	0	16000
117	7	30	5	50	3	0	250000
118	7	31	8	50	3	0	250000
119	7	32	12	30	3	0	24000
120	7	43	478	129	-19	0	100
121	7	44	478	178	-19	0	5000
122	7	56	783	0	-19	0	3000000
123	7	72	1207	4020	-19	0	0
124	7	74	1207	4019	-19	0	0
125	7	76	1207	4018	-19	0	0
126	7	78	1207	4017	-19	0	0
127	7	80	1207	4000	-19	0	0
128	7	82	1207	3999	-19	0	0
129	7	84	1207	3998	-19	0	0
130	7	86	1207	3997	-19	0	0
131	7	88	1207	3980	-19	0	0
132	7	90	1207	3979	-19	0	0
133	7	92	1207	3978	-19	0	0
134	7	94	1207	3977	-19	0	0
135	7	96	1207	4004	-19	0	0
136	7	98	1207	4003	-19	0	0
137	7	100	1207	4002	-19	0	0
138	7	102	1207	4001	-19	0	0
139	7	104	1207	3984	-19	0	0
140	7	106	1207	3983	-19	0	0
141	7	108	1207	3982	-19	0	0
142	7	110	1207	3981	-19	0	0
143	7	112	1207	3964	-19	0	0
144	7	114	1207	3963	-19	0	0
145	7	116	1207	3962	-19	0	0
146	7	118	1207	3961	-19	0	0
147	50	0	3	1	-19	0	60
148	50	1	4	1	-19	0	800
149	50	2	5	1	-19	0	5000
150	50	3	6	1	-19	0	60
151	50	4	7	1	-19	0	800
152	50	5	8	1	-19	0	5000
153	50	8	3	4	-19	0	240
154	50	9	4	4	-19	0	3200
155	50	10	5	4	-19	0	20000
156	50	11	6	4	-19	0	240
157	50	12	7	4	-19	0	3200
158	50	13	8	4	-19	0	20000
159	50	16	3	7	-19	0	420
160	50	17	4	7	-19	0	5600
161	50	18	5	7	-19	0	35000
162	50	19	6	7	-19	0	420
163	50	20	7	7	-19	0	5600
164	50	21	8	7	-19	0	35000
165	50	24	5	20	1	0	100000
166	50	25	8	20	1	0	100000
167	50	26	12	10	1	0	8000
168	50	27	5	30	2	0	150000
169	50	28	8	30	2	0	150000
170	50	29	12	20	2	0	16000
171	50	35	5	50	3	0	250000
172	50	36	8	50	3	0	250000
173	50	37	12	30	3	0	24000
